DIMENSION :15
NODE_COORD_SECTION
1 6.190696853208962 44.745342145490895
2 84.46781469219869 -1.4192232223059165
3 91.18873959781428 24.76634182523921
4 90.47277453561514 70.29655448143887
5 83.19158729877009 -86.06113154008818
6 85.53555576779229 -61.149094029054
7 56.61644613033215 -19.113801355901103
8 79.78967339261166 33.211992374473795
9 59.28000384992919 28.460811025941467
10 -11.843467678957524 -39.6053525670756
11 61.07709919550223 -90.10979780805775
12 -53.514061180768 -92.50466848311041
13 -35.29742146047636 -9.975906163773544
14 -77.18825550279615 -74.55956966970965
15 -17.695729007482726 13.04160055267944
EOF
